; benchmark generated from python API
(set-info :status unknown)
(declare-fun S_1 () Real)
(declare-fun S_2 () Real)
(declare-fun S_4 () Real)
(declare-fun S_0 () Real)
(declare-fun L_0 () Real)
(declare-fun A_0 () Real)
(declare-fun S_3 () Real)
(declare-fun A_1 () Real)
(declare-fun L_1 () Real)
(declare-fun A_2 () Real)
(declare-fun loss_rate_tol () Real)
(declare-fun A_5 () Real)
(declare-fun A_4 () Real)
(declare-fun A_3 () Real)
(assert
 (let (($x2766 (<= (+ (* (- (/ 1.0 2.0)) S_4) (* (- 1.0) A_0) (* (/ 3.0 2.0) S_1) L_0) 0.0)))
 (let (($x1777 (<= (+ (* (- 2.0) S_4) (* (- 1.0) A_0) (* 3.0 S_2) L_0) 0.0)))
 (let (($x8606 (<= (+ (* (/ 1.0 2.0) L_1) (* (- (/ 1.0 2.0)) A_1) (* (- (/ 1.0 2.0)) S_4) S_2) 0.0)))
 (let (($x39 (>= L_0 0.0)))
 (let ((?x5548 (* 2.0 loss_rate_tol)))
 (let ((?x440 (* (- 1.0) S_3)))
 (let ((?x1347 (* (- 1.0) A_0)))
 (let ((?x7818 (* (- 2.0) A_5)))
 (let ((?x4191 (* 2.0 A_4)))
 (let ((?x1743 (* 2.0 S_4)))
 (let (($x344232 (not (<= 0.0 (+ ?x1743 ?x4191 ?x7818 ?x1347 ?x440 ?x5548 L_0)))))
 (let (($x329039 (not (<= (- 5.0) (+ (* (/ 1.0 6.0) L_1) (* (- (/ 1.0 6.0)) A_5) (* (/ 1.0 6.0) S_2))))))
 (let (($x328329 (not (<= (- 5.0) (+ (* (/ 1.0 4.0) A_4) (* (- (/ 1.0 4.0)) A_5))))))
 (let (($x328269 (<= (- 5.0) (+ (* (- (/ 1.0 3.0)) A_5) (* (/ 1.0 3.0) A_2) (* (/ 1.0 3.0) loss_rate_tol)))))
 (let (($x328270 (not $x328269)))
 (let (($x327684 (not (<= 0.0 loss_rate_tol))))
 (let ((?x8907 (* (/ 3.0 2.0) loss_rate_tol)))
 (let ((?x7764 (* (- (/ 3.0 2.0)) A_5)))
 (let ((?x2619 (* (/ 3.0 2.0) A_4)))
 (let (($x330928 (not (<= 0.0 (+ S_4 ?x2619 ?x7764 ?x1347 ?x8907 L_0)))))
 (let (($x329531 (<= (- 5.0) (+ (* (/ 1.0 7.0) L_1) (* (- (/ 1.0 7.0)) A_5) (* (/ 1.0 7.0) S_1)))))
 (let (($x329532 (not $x329531)))
 (let ((?x8656 (* (/ 1.0 2.0) loss_rate_tol)))
 (let ((?x2693 (* (- (/ 1.0 2.0)) S_3)))
 (let ((?x9354 (* (- (/ 1.0 2.0)) A_5)))
 (let ((?x3108 (* (/ 1.0 2.0) A_4)))
 (let ((?x2346 (* (/ 1.0 2.0) A_1)))
 (let ((?x9779 (* (- (/ 1.0 2.0)) L_1)))
 (let (($x330980 (not (<= (- 5.0) (+ ?x9779 ?x2346 ?x3108 ?x9354 ?x2693 ?x8656)))))
 (let (($x330931 (not (<= 0.0 (+ S_4 ?x4191 ?x7818 (* (- 1.0) S_0) ?x5548)))))
 (let (($x332051 (not (<= (- 5.0) (+ (* (/ 1.0 5.0) L_1) (* (- (/ 1.0 5.0)) A_5) (* (/ 1.0 5.0) S_3))))))
 (let ((?x433 (* (- 1.0) S_2)))
 (let ((?x471 (* (- 1.0) A_5)))
 (let ((?x302 (* (- 1.0) L_1)))
 (let (($x331267 (not (<= (- 5.0) (+ ?x302 A_1 A_4 ?x471 ?x433 loss_rate_tol)))))
 (let ((?x1426 (* (- 1.0) S_0)))
 (let ((?x2377 (* 2.0 A_1)))
 (let ((?x5235 (* (- 2.0) L_1)))
 (let (($x331146 (not (<= 0.0 (+ ?x5235 ?x2377 ?x4191 ?x7818 ?x433 ?x1426 ?x5548)))))
 (let (($x331116 (not (<= (- 5.0) (+ (* (/ 1.0 4.0) L_1) (* (/ 1.0 4.0) S_4) (* (- (/ 1.0 4.0)) A_5))))))
 (let (($x332668 (<= 0.0 (+ ?x302 A_1 A_4 ?x471 (* (- 1.0) S_1) loss_rate_tol))))
 (let (($x342291 (not $x332668)))
 (let (($x344670 (<= 0.0 (+ (* (/ 3.0 2.0) S_4) ?x2619 ?x7764 ?x440 (* (- (/ 1.0 2.0)) S_0) ?x8907))))
 (let (($x344671 (not $x344670)))
 (let (($x333083 (<= 0.0 (+ (* (- (/ 3.0 2.0)) L_1) (* (/ 3.0 2.0) A_1) ?x2619 ?x7764 ?x2693 ?x1426 ?x8907))))
 (let (($x333084 (not $x333083)))
 (let (($x336309 (not (<= 0.0 (+ S_4 ?x2619 ?x7764 (* (- 1.0) S_1) ?x8907)))))
 (let (($x355523 (not (<= 0.0 (+ ?x1743 ?x4191 ?x7818 ?x440 (* (- 1.0) S_1) ?x5548)))))
 (let (($x341180 (not (<= (- 5.0) (+ A_1 (* (- 1.0) A_2))))))
 (let ((?x21376 (* (/ 1.0 4.0) loss_rate_tol)))
 (let ((?x11379 (* (- (/ 1.0 4.0)) A_5)))
 (let ((?x21380 (* (/ 1.0 4.0) A_1)))
 (let ((?x21381 (+ ?x21380 ?x11379 ?x21376)))
 (let (($x330272 (not (<= (- 5.0) ?x21381))))
 (let (($x329540 (not (<= (- 40.0) (+ L_1 ?x471 S_0)))))
 (let ((?x16256 (* (/ 1.0 3.0) loss_rate_tol)))
 (let ((?x16302 (* (- (/ 1.0 3.0)) A_5)))
 (let ((?x7186 (* (/ 1.0 3.0) A_4)))
 (let ((?x4820 (* (- (/ 1.0 3.0)) S_4)))
 (let ((?x2651 (* (/ 1.0 3.0) A_1)))
 (let ((?x5120 (* (- (/ 1.0 3.0)) L_1)))
 (let (($x340337 (not (<= (- 5.0) (+ ?x5120 ?x2651 ?x4820 ?x7186 ?x16302 ?x16256)))))
 (let (($x330099 (not (<= 0.0 (+ L_1 ?x1743 ?x471 (* (- 1.0) S_1))))))
 (let ((?x16070 (* (/ 4.0 3.0) loss_rate_tol)))
 (let ((?x427 (* (- 1.0) S_1)))
 (let ((?x16260 (* (/ 4.0 3.0) A_2)))
 (let ((?x16240 (* (- (/ 4.0 3.0)) A_5)))
 (let (($x328552 (<= 0.0 (+ S_4 ?x16240 ?x16260 ?x427 ?x16070))))
 (let (($x328553 (not $x328552)))
 (let (($x327984 (not (<= 0.0 (+ S_4 A_4 ?x471 ?x433 loss_rate_tol)))))
 (let ((?x6766 (* (/ 4.0 3.0) A_4)))
 (let ((?x5134 (* (/ 4.0 3.0) A_1)))
 (let ((?x5133 (* (- (/ 4.0 3.0)) L_1)))
 (let (($x338501 (not (<= 0.0 (+ ?x5133 ?x5134 ?x4820 ?x6766 ?x16240 ?x1426 ?x16070)))))
 (let (($x329155 (not (<= (- 5.0) (+ (* (/ 1.0 7.0) A_1) (* (- (/ 1.0 7.0)) A_5))))))
 (let (($x342007 (not (<= 0.0 (+ (* (/ 3.0 4.0) A_4) (* (- (/ 3.0 4.0)) A_5) ?x1347 S_3 L_0)))))
 (let (($x343455 (not (<= 0.0 (+ ?x3108 ?x9354 S_1 ?x1426)))))
 (let ((?x15326 (* (/ 2.0 3.0) loss_rate_tol)))
 (let ((?x15325 (* (/ 2.0 3.0) A_2)))
 (let ((?x16091 (* (- (/ 2.0 3.0)) A_5)))
 (let (($x329491 (not (<= 0.0 (+ ?x16091 ?x15325 S_1 ?x1426 ?x15326)))))
 (let (($x328459 (<= 0.0 (+ (* (/ 2.0 7.0) L_1) (* (- (/ 2.0 7.0)) A_5) (* (/ 9.0 7.0) S_1) ?x1426))))
 (let (($x328460 (not $x328459)))
 (let (($x328716 (not (<= 0.0 (+ L_1 ?x1743 ?x471 ?x1347 L_0)))))
 (let (($x318881 (not (<= 0.0 (+ S_4 ?x7818 (* 2.0 A_3) ?x1347 ?x5548 L_0)))))
 (let (($x330964 (not (<= 0.0 (+ ?x302 A_1 A_4 ?x471 ?x1347 loss_rate_tol L_0)))))
 (let ((?x36281 (* (/ 5.0 3.0) loss_rate_tol)))
 (let ((?x35555 (* (/ 5.0 3.0) A_2)))
 (let ((?x21112 (* (- (/ 5.0 3.0)) A_5)))
 (let (($x334352 (not (<= 0.0 (+ S_4 ?x21112 ?x35555 ?x1426 ?x36281)))))
 (let (($x328872 (<= 0.0 (+ (* (/ 5.0 4.0) L_1) (* (/ 9.0 4.0) S_4) (* (- (/ 5.0 4.0)) A_5) ?x1426))))
 (let (($x328873 (not $x328872)))
 (let (($x333501 (not (<= 0.0 (+ ?x471 A_2 S_2 ?x1426 loss_rate_tol)))))
 (let (($x330828 (not (<= 0.0 (+ (* (/ 3.0 4.0) A_4) (* (- (/ 3.0 4.0)) A_5) S_2 ?x1426)))))
 (let (($x328651 (not (<= 0.0 (+ (* (/ 1.0 2.0) L_1) ?x9354 (* (/ 3.0 2.0) S_2) ?x1426)))))
 (let ((?x32104 (* (/ 5.0 4.0) loss_rate_tol)))
 (let ((?x11405 (* (- (/ 5.0 4.0)) A_5)))
 (let ((?x21442 (* (/ 5.0 4.0) A_1)))
 (let (($x330909 (not (<= 0.0 (+ ?x21442 S_4 ?x11405 ?x1426 ?x32104)))))
 (let ((?x8913 (* (/ 5.0 2.0) loss_rate_tol)))
 (let ((?x2390 (* (/ 5.0 2.0) A_3)))
 (let ((?x8887 (* (- (/ 5.0 2.0)) A_5)))
 (let (($x332247 (not (<= 0.0 (+ S_4 ?x8887 ?x2390 ?x1426 ?x8913)))))
 (let (($x321379 (<= 0.0 (+ L_1 (* (- 1.0) A_1) S_4 A_4 ?x471 loss_rate_tol))))
 (let (($x325714 (not $x321379)))
 (let (($x330370 (not (<= 0.0 (+ ?x3108 ?x9354 ?x1347 S_2 L_0)))))
 (let (($x328675 (not (<= 0.0 (+ (* (/ 1.0 3.0) L_1) ?x16302 ?x1347 (* (/ 4.0 3.0) S_2) L_0)))))
 (let (($x328244 (not (<= 0.0 (+ ?x16091 ?x15325 ?x1347 S_2 ?x15326 L_0)))))
 (let ((?x21344 (* (/ 3.0 4.0) loss_rate_tol)))
 (let ((?x11396 (* (- (/ 3.0 4.0)) A_5)))
 (let ((?x21366 (* (/ 3.0 4.0) A_1)))
 (let (($x333816 (not (<= 0.0 (+ ?x21366 S_4 ?x11396 ?x433 ?x21344)))))
 (let (($x328727 (not (<= 0.0 (+ (* (/ 3.0 4.0) L_1) (* (/ 7.0 4.0) S_4) ?x11396 ?x433)))))
 (let (($x335131 (not (<= 0.0 (+ ?x21366 ?x11396 ?x1347 S_3 ?x21344 L_0)))))
 (let (($x328221 (<= 0.0 (+ (* (/ 3.0 5.0) L_1) (* (- (/ 3.0 5.0)) A_5) ?x1347 (* (/ 8.0 5.0) S_3) L_0))))
 (let (($x328222 (not $x328221)))
 (let (($x9316 (<= (+ ?x5235 ?x2377 ?x1347 ?x440 L_0) 0.0)))
 (let (($x331384 (<= (- 5.0) (+ (* 2.0 L_1) (* (- 2.0) A_1) S_4 S_0))))
 (let (($x330969 (not (<= 0.0 (+ S_4 ?x16240 ?x16260 ?x1347 ?x16070 L_0)))))
 (let (($x340792 (not (<= 0.0 (+ (* (/ 1.0 4.0) A_4) ?x11379 ?x1347 S_1 L_0)))))
 (let (($x331937 (not (<= 0.0 (+ ?x21380 ?x11379 ?x1347 S_1 ?x21376 L_0)))))
 (let (($x328151 (<= 0.0 (+ (* (/ 1.0 7.0) L_1) (* (- (/ 1.0 7.0)) A_5) ?x1347 (* (/ 8.0 7.0) S_1) L_0))))
 (let (($x328152 (not $x328151)))
 (let (($x340840 (not (<= 0.0 (+ ?x3108 ?x9354 S_2 ?x427)))))
 (let (($x330454 (not (<= 0.0 (+ L_1 ?x471 (* 4.0 S_2) (* (- 3.0) S_1))))))
 (let (($x328287 (not (<= 0.0 (+ ?x16091 ?x15325 S_2 ?x427 ?x15326)))))
 (let (($x341825 (not (<= 0.0 (+ (* (/ 3.0 4.0) A_4) ?x11396 S_3 ?x427)))))
 (let (($x331042 (<= 0.0 (+ (* (/ 3.0 5.0) L_1) (* (- (/ 3.0 5.0)) A_5) (* (/ 8.0 5.0) S_3) ?x427))))
 (let (($x331043 (not $x331042)))
 (let (($x327566 (not (<= 0.0 (+ A_2 ?x471 S_3 ?x427 loss_rate_tol)))))
 (let (($x339275 (not (<= (- 5.0) (+ S_4 A_4 ?x471 ?x440 loss_rate_tol)))))
 (let (($x332606 (not (<= 0.0 (+ ?x16260 ?x16240 S_3 ?x1426 ?x16070)))))
 (let (($x56 (= L_1 L_0)))
 (let (($x325699 (not (<= (- 10.0) (+ ?x471 A_3 loss_rate_tol)))))
 (let (($x332193 (not (<= 0.0 (+ ?x7764 (* (/ 3.0 2.0) A_3) S_3 ?x427 ?x8907)))))
 (let (($x339834 (not (<= 0.0 (+ ?x21366 ?x11396 S_3 ?x427 ?x21344)))))
 (let (($x338076 (not (<= (- 10.0) (+ A_4 ?x471 loss_rate_tol)))))
 (let (($x336173 (not (<= 0.0 (+ L_1 (* (- 1.0) A_1) ?x3108 ?x9354 S_3)))))
 (let (($x329411 (<= 0.0 (+ L_1 (* (- 1.0) A_1) ?x471 A_3 S_3 loss_rate_tol))))
 (let (($x330362 (not (<= 0.0 (+ L_1 (* (- (/ 5.0 7.0)) A_1) (* (- (/ 2.0 7.0)) A_5) S_3)))))
 (let (($x338094 (not (<= 0.0 (+ A_4 ?x471 S_3 ?x1426)))))
 (let (($x334115 (not (<= 0.0 (+ L_1 ?x471 (* (/ 9.0 4.0) S_3) (* (- (/ 5.0 4.0)) S_0))))))
 (let (($x333510 (not (<= 0.0 (+ ?x7818 (* 2.0 A_3) S_3 ?x1426 ?x5548)))))
 (let (($x906826 (or $x328270 $x328329 (<= 0.0 (+ ?x471 A_2 (* (/ 3.0 2.0) S_3) (* (- (/ 3.0 2.0)) S_1))) $x329531 $x332051 $x336309)))
 (let (($x337658 (not (<= 0.0 (+ L_1 (* (- 1.0) A_1) (* (/ 1.0 4.0) A_4) ?x11379 S_2)))))
 (let ((?x1609 (* 3.0 S_2)))
 (let ((?x5569 (* (- 3.0) A_1)))
 (let ((?x5186 (* 3.0 L_1)))
 (let (($x326371 (not (<= 0.0 (+ L_1 (* (- (/ 6.0 7.0)) A_1) (* (- (/ 1.0 7.0)) A_5) S_2)))))
 (let (($x382634 (or $x325714 $x326371 $x327684 (not (<= 0.0 (+ ?x5186 ?x5569 A_2 ?x471 ?x1609 loss_rate_tol))) $x337658)))
 (let (($x333087 (not (<= 0.0 (+ S_4 ?x7764 (* (/ 3.0 2.0) A_3) ?x433 ?x8907)))))
 (let (($x335134 (not (<= 0.0 (+ A_1 ?x471 S_3 ?x1426 loss_rate_tol)))))
 (let (($x331282 (not (<= 0.0 (+ ?x471 A_3 S_1 ?x1426 loss_rate_tol)))))
 (let (($x328246 (<= 0.0 (+ L_1 (* (- 1.0) A_1) S_4 ?x16302 (* (/ 1.0 3.0) A_2) ?x16256))))
 (let (($x328247 (not $x328246)))
 (let ((?x2381 (* (- 2.0) A_1)))
 (let ((?x5143 (* 2.0 L_1)))
 (let (($x327909 (not (<= 0.0 (+ ?x5143 ?x2381 ?x471 A_3 (* 2.0 S_2) loss_rate_tol)))))
 (let ((?x7791 (* 4.0 loss_rate_tol)))
 (let ((?x7748 (* (- 4.0) A_5)))
 (let ((?x7744 (* 4.0 A_4)))
 (let (($x319796 (not (<= 0.0 (+ S_4 ?x7744 ?x7748 ?x427 ?x7791)))))
 (let (($x329582 (not (<= 0.0 (+ S_4 ?x7818 (* 2.0 A_3) ?x427 ?x5548)))))
 (let (($x338984 (not (<= 0.0 (+ L_1 (* (- 1.0) A_1) ?x15325 ?x16091 S_3 ?x15326)))))
 (let ((?x1314 (* (/ 2.0 3.0) S_0)))
 (let ((?x1312 (* (/ 1.0 3.0) S_3)))
 (let ((?x460 (* (- 1.0) A_1)))
 (let ((?x1322 (+ L_1 ?x460 ?x1312 ?x1314)))
 (let (($x325157 (<= 0.0 (+ L_1 ?x1743 (* (- 1.0) A_4) ?x433))))
 (let (($x335793 (not (<= 0.0 (+ A_2 ?x471 ?x1347 S_3 loss_rate_tol L_0)))))
 (let (($x331353 (not (<= 0.0 (+ ?x21366 ?x11396 S_2 ?x1426 ?x21344)))))
 (let (($x334498 (not (<= 0.0 (+ ?x7764 (* (/ 3.0 2.0) A_3) S_2 ?x1426 ?x8907)))))
 (let (($x343594 (not (<= 0.0 (+ ?x4820 A_4 (* (- 1.0) A_2) (* (/ 1.0 3.0) S_0))))))
 (let (($x63833 (<= (+ S_4 A_4 (* (- 1.0) A_2) (* (- (/ 3.0 2.0)) S_3) (* (/ 1.0 2.0) S_1)) 0.0)))
 (let (($x437614 (or (<= 0.0 (+ L_1 ?x460 S_4 ?x2693 (* (/ 1.0 2.0) S_1))) $x327684 $x328270 $x328329 $x329540 $x342291)))
 (let (($x333716 (not (<= 0.0 (+ ?x2346 ?x9354 S_2 ?x427 ?x8656)))))
 (let (($x343112 (<= 0.0 (+ (* (/ 1.0 2.0) L_1) (* (- (/ 1.0 2.0)) A_1) S_4 ?x3108 ?x9354 ?x2693 ?x8656))))
 (let (($x334201 (not (<= 0.0 (+ ?x2346 ?x9354 S_1 ?x1426 ?x8656)))))
 (let ((?x7803 (* 3.0 loss_rate_tol)))
 (let ((?x7813 (* (- 3.0) A_5)))
 (let ((?x7805 (* 3.0 A_4)))
 (let (($x328311 (not (<= 0.0 (+ ?x7805 ?x7813 S_2 ?x1426 ?x7803)))))
 (let (($x3090 (<= (+ ?x2619 ?x471 (* (- (/ 1.0 2.0)) A_2) loss_rate_tol) 0.0)))
 (let (($x517545 (or $x56 (not (<= 0.0 (+ ?x5143 ?x2381 ?x1743 ?x471 A_3 loss_rate_tol))) $x327684)))
 (let (($x332671 (not (<= 0.0 (+ ?x471 A_3 S_3 ?x433 loss_rate_tol)))))
 (let (($x340834 (not (<= 0.0 (+ ?x5235 ?x2377 ?x4191 ?x7818 S_3 (* (- 3.0) S_2) ?x5548)))))
 (let (($x340513 (not (<= 0.0 (+ ?x2346 ?x9354 S_3 ?x433 ?x8656)))))
 (let (($x338871 (not (<= 0.0 (+ ?x3108 ?x9354 S_3 ?x433)))))
 (let (($x328227 (<= 0.0 (+ (* (/ 2.0 5.0) L_1) (* (- (/ 2.0 5.0)) A_5) (* (/ 7.0 5.0) S_3) ?x433))))
 (let (($x328228 (not $x328227)))
 (let (($x327808 (not (<= 0.0 (+ ?x471 A_3 S_2 ?x427 loss_rate_tol)))))
 (let (($x332945 (<= 0.0 (+ ?x15325 ?x16091 S_3 ?x433 ?x15326))))
 (let (($x332946 (not $x332945)))
 (let (($x331451 (not (<= 0.0 (+ ?x302 A_2 A_4 ?x471 ?x433 loss_rate_tol)))))
 (let (($x334679 (<= 0.0 (+ L_1 (* (/ 4.0 3.0) S_4) (* (- 1.0) A_4) (* (- (/ 1.0 3.0)) S_0)))))
 (let ((?x3266 (* 3.0 S_1)))
 (let (($x329062 (<= 0.0 (+ A_2 ?x471 (* (- 3.0) A_0) ?x3266 loss_rate_tol (* 3.0 L_0)))))
 (let (($x329063 (not $x329062)))
 (let (($x316231 (not (<= 0.0 (+ L_1 (* (- (/ 4.0 7.0)) A_1) S_4 (* (- (/ 3.0 7.0)) A_5))))))
 (let (($x430125 (or $x316231 $x327684 (not (<= 0.0 (+ L_1 ?x460 S_4 ?x7764 (* (/ 3.0 2.0) A_3) ?x8907))))))
 (let (($x331120 (not (<= 0.0 (+ S_4 ?x471 A_2 ?x433 loss_rate_tol)))))
 (let (($x332700 (not (<= 0.0 (+ ?x7764 (* (/ 3.0 2.0) A_3) ?x1347 S_3 ?x8907 L_0)))))
 (let (($x328211 (not (<= 0.0 (+ ?x7805 ?x7813 ?x1347 S_3 ?x7803 L_0)))))
 (let (($x397425 (or $x327684 (not (<= 0.0 (+ ?x5143 (* (- 2.0) A_4) (* 3.0 S_3) ?x433))) $x338871 $x340834)))
 (let (($x361854 (or $x3090 $x327684 $x328552 (not (<= 0.0 (+ L_1 ?x460 ?x4191 ?x7818 S_3 ?x5548))) $x330362)))
 (let (($x329734 (not (<= 0.0 (+ ?x7744 ?x7748 S_3 ?x1426 ?x7791)))))
 (let (($x330302 (not (<= 0.0 (+ ?x2346 ?x9354 ?x1347 S_2 ?x8656 L_0)))))
 (let (($x451472 (or $x327684 $x330454 $x333716 (not (<= 0.0 (+ ?x302 A_1 A_4 ?x471 ?x427))))))
 (let ((?x2698 (* 2.0 S_1)))
 (let (($x329058 (<= 0.0 (+ ?x471 A_3 (* (- 2.0) A_0) ?x2698 loss_rate_tol (* 2.0 L_0)))))
 (let (($x329059 (not $x329058)))
 (let (($x333363 (not (<= 0.0 (+ A_1 S_4 ?x471 ?x427 loss_rate_tol)))))
 (let (($x328360 (not (<= (- 5.0) (+ A_4 ?x471 loss_rate_tol)))))
 (let (($x327598 (not (<= 0.0 (+ S_4 ?x7744 ?x7748 ?x1347 ?x7791 L_0)))))
 (let ((?x7203 (* 5.0 loss_rate_tol)))
 (let ((?x7660 (* (- 5.0) A_5)))
 (let ((?x7746 (* 5.0 A_4)))
 (let (($x328338 (not (<= 0.0 (+ S_4 ?x7746 ?x7660 ?x1426 ?x7203)))))
 (let (($x331927 (not (<= 0.0 (+ A_1 S_4 ?x471 ?x1347 loss_rate_tol L_0)))))
 (let (($x328997 (not (<= 0.0 (+ ?x471 A_3 ?x1347 S_2 loss_rate_tol L_0)))))
 (let ((?x74598 (+ (* (/ 2.0 3.0) L_1) (* (- (/ 2.0 3.0)) A_1) (* (/ 2.0 3.0) S_4) ?x7186 ?x16302 ?x16256)))
 (let (($x463444 (or $x327684 $x328873 $x330909 $x331451 (not (<= 0.0 (+ (* 5.0 A_1) S_4 (* (- 5.0) A_2) ?x1426))))))
 (let (($x329931 (not (<= 0.0 (+ ?x4191 ?x7818 S_1 ?x1426 ?x5548)))))
 (let (($x340736 (or $x3090 (not (<= 0.0 (+ L_1 ?x460 A_4 ?x471 S_2 loss_rate_tol))) $x326371 $x327684 $x328552)))
 (let (($x328154 (not (<= 0.0 (+ A_4 ?x471 ?x1347 S_1 loss_rate_tol L_0)))))
 (let (($x328927 (not (<= 0.0 (+ ?x4191 ?x7818 ?x1347 S_2 ?x5548 L_0)))))
 (let (($x331914 (not (<= 0.0 (+ S_4 ?x16091 ?x15325 ?x440 ?x15326)))))
 (let (($x328720 (not (<= 0.0 (+ (* (/ 1.0 2.0) L_1) (* (/ 3.0 2.0) S_4) ?x9354 ?x440)))))
 (let (($x324426 (not (<= 0.0 (+ S_4 ?x471 A_3 ?x440 loss_rate_tol)))))
 (let (($x331033 (or $x327684 $x316231 (not (<= 0.0 (+ L_1 ?x460 S_4 A_2 ?x471 loss_rate_tol))))))
 (let (($x331032 (or $x327684 $x316231 (not (<= 0.0 (+ L_1 ?x460 S_4 ?x7805 ?x7813 ?x7803))))))
 (let (($x328232 (not (<= 0.0 (+ ?x4191 ?x7818 S_3 ?x433 ?x5548)))))
 (let (($x574 (<= (- 5.0) (+ L_1 ?x460 S_0))))
 (let (($x572 (not $x574)))
 (let (($x328485 (or $x56 (not (<= 0.0 (+ L_1 ?x460 (* (/ 1.0 2.0) S_4) (* (/ 1.0 2.0) S_1)))))))
 (let (($x5125 (<= (+ (* (- (/ 2.0 3.0)) L_1) (* (/ 2.0 3.0) A_1) (* (/ 1.0 3.0) S_4) ?x440) 0.0)))
 (let (($x5131 (<= (+ ?x302 A_1 ?x433) 0.0)))
 (let (($x137 (>= S_4 S_3)))
 (let (($x142 (>= A_1 A_0)))
 (let (($x128 (>= S_1 S_0)))
 (let (($x131 (>= S_2 S_1)))
 (let (($x134 (>= S_3 S_2)))
 (let (($x144 (>= A_3 A_2)))
 (let (($x145 (>= A_4 A_3)))
 (let (($x146 (>= A_5 A_4)))
 (and (<= (+ A_1 ?x302) S_4) $x146 $x145 $x144 $x134 $x131 $x128 $x142 $x137 (or $x56 (not (<= 0.0 (+ ?x302 L_0)))) (or $x56 (not (<= 0.0 (+ L_1 ?x460 S_4 ?x440 S_1)))) (or $x56 (not (<= 0.0 (+ ?x5143 ?x2381 ?x1743 ?x440 S_0)))) (or $x56 $x327598 $x327684) (or (<= (+ (* (/ 1.0 4.0) S_4) ?x433 (* (/ 3.0 4.0) S_0)) 0.0) $x5131) (or (<= (+ (* (/ 1.0 2.0) S_4) ?x440 (* (/ 1.0 2.0) S_0)) 0.0) $x5125) (or $x56 $x324426 $x327684) (or (not $x5131) $x56) (or $x56 (not (<= 0.0 (+ L_1 ?x460 S_4 ?x433 S_0)))) $x328485 (<= (+ ?x1347 ?x440 ?x2698 L_0) 0.0) (or (not (<= 0.0 (+ S_4 ?x4191 ?x7818 ?x440 ?x5548))) $x327684 $x328720) (or (not (<= 0.0 (+ S_4 ?x7805 ?x7813 ?x433 ?x7803))) $x327684 $x328727) (or $x56 (not (<= 0.0 (+ ?x5186 ?x5569 ?x1743 S_0)))) (or $x574 (<= (+ (* (- 1.0) S_4) S_0) (- 15.0))) (or $x572 (<= (+ ?x9779 ?x2346 (* (- (/ 1.0 2.0)) S_4)) (- 5.0))) (or $x56 $x327684 $x328927) (or (not (<= ?x1322 0.0)) (<= (+ ?x1312 ?x433 ?x1314) 0.0)) (or (<= ?x1322 0.0) $x5131) (or $x574 (<= (+ ?x2693 (* (/ 1.0 2.0) S_0)) (- 5.0))) (or $x572 (<= (+ ?x302 A_1 ?x440) (- 5.0))) (or (<= (+ ?x433 S_0) (- 5.0)) $x5131) (or $x3090 $x327684 $x328228 $x328232 $x328552) $x331032 $x331033 (or $x327684 $x328720 $x324426) (or $x327684 $x328360 $x331116) (or $x3090 $x327684 $x328360 $x328552 $x329039) (or $x56 $x327684 $x328154) (or $x56 $x327684 $x328360) (or $x56 (not (<= 0.0 (+ S_4 ?x4191 ?x7818 ?x440 ?x5548))) $x327684) (or $x327684 $x328270 $x330980 $x331116) (or $x56 (not (<= 0.0 (+ ?x2346 S_4 ?x9354 ?x440 ?x8656))) $x327684) (or $x56 $x327684 $x330302 $x330964) (or (not (<= 0.0 (+ ?x2346 S_4 ?x9354 ?x440 ?x8656))) $x327684 $x328720) (or $x56 $x327684 $x328244 $x330964) (or $x56 $x327684 $x330964 $x331353) (or $x327684 $x328552 (not (<= 0.0 (+ ?x7805 ?x7813 S_3 ?x427 ?x7803))) $x331043) (or $x56 $x327684 $x331914) (or $x327684 $x328720 $x331914) (or $x56 $x327684 $x328997) (or $x56 $x327684 $x332700) (or $x3090 $x327684 $x328552 $x328675 $x328927) (or $x327684 $x328716 $x331927) (or $x56 $x327684 $x330272 $x330980) (or $x327684 $x328675 $x328927 $x330370) (or $x3090 $x327684 $x328152 $x328154 $x328552) $x340736 (or $x3090 $x327684 $x328460 $x328552 $x329931) (or (<= (+ A_4 (* (- 1.0) A_3)) 5.0) $x327684 $x328270 $x329532) (or $x327684 $x328873 $x330909 $x330964) (or $x327684 $x328338 $x328873) (or $x56 $x327684 $x333816) (or $x56 $x325714 $x327684) $x463444 (or $x56 $x327684 $x329063 $x330964) (or $x56 $x327684 $x328247 (not (<= 0.0 ?x74598))) (or $x56 $x327684 $x330964 $x331937) (or $x327684 $x328675 $x328997 $x330370) (or $x56 $x325699 $x327684) (or $x56 $x327684 $x333084 $x334201) (or $x56 $x327684 $x333084 $x335134) (or $x327684 $x330099 $x333363) (or $x3090 $x327684 $x328360 $x328552 $x332051) (or $x56 $x327684 $x331927) (or $x56 $x327684 $x330964 $x330969) (or $x56 $x327684 $x328338) (or $x56 $x325157 $x327684 $x330272) (or $x56 $x327684 $x330272 $x333084) (or $x56 $x327684 $x330272 $x331267) (or $x56 (not (<= 0.0 (+ S_4 ?x7805 ?x7813 ?x433 ?x7803))) $x327684) (or $x56 $x327684 $x333087) (or $x56 $x327684 $x334498) (or $x56 $x327684 $x333084 $x333501) (or $x3090 $x327684 $x328360 $x328552 $x329155 $x329540) (or $x56 $x327684 $x329059) (or $x56 $x327684 $x330272 $x342291) (or $x56 $x327684 $x328270 $x330980) (or $x327684 $x328727 $x331120) (or $x327684 $x328675 $x330302 $x330828 $x333084) (or $x56 $x327684 $x328270 $x342291) (or $x56 $x319796 $x327684) (or $x327684 $x328675 $x330302 $x334679) (or $x56 $x327684 $x334352 $x338501) (or $x56 $x327684 $x335134 $x342291) (or $x56 $x327684 $x329491 $x333084) (or $x327684 $x328228 $x332671 $x338871) (or $x56 $x327684 $x333084 $x335793) (or $x56 $x327684 $x328211) (or $x56 $x327684 (not (<= 0.0 (+ ?x4191 ?x7818 S_2 ?x427 ?x5548)))) (or $x327598 $x327684 $x328716) (or $x327684 $x328329 $x329540 $x330272 $x331146 $x341180) (or $x325699 $x327684 $x329155 $x329540 $x336173) (or (<= (+ A_4 (* (- 1.0) A_3)) 5.0) $x327684 $x328360 $x329155 $x329540) (or $x327684 $x328244 $x328675 $x330928 $x342007) (or $x56 $x327684 $x328270 (not (<= (- 5.0) (+ ?x3108 ?x9354 ?x8656)))) (or $x56 $x327684 $x330272 $x340337) (or $x327684 $x330272 $x331116 $x331146) (or $x327684 $x328152 $x329059 $x342007) (or $x327684 $x328716 $x330964 $x330969) (or $x327684 $x328152 $x329063 $x330964 $x340792) (or $x3090 $x327684 $x328360 $x328552 $x329532) (or $x327684 $x333510 $x334115 $x343455) (or $x56 $x327684 $x328553 $x342291) (or $x56 $x327684 $x328247 $x342291) (or $x56 $x327684 $x330909 $x333084) (or $x327684 $x328270 $x328329 $x329532 $x331146) (or $x56 $x327684 $x333363) (or $x327684 $x328329 $x329039 $x330272 $x338501) (or $x327684 $x328651 $x333501 $x340840 $x342291) (or $x327684 $x328222 $x333084 $x335131 $x341825) (or $x327684 $x328716 $x330928 $x330969) (or $x327684 $x330272 $x330964 $x331116) (or $x56 $x327684 $x330272 $x330964) (or $x327684 $x328152 $x329059 $x340792) (or $x327684 $x328152 $x329063 $x330928 $x340792) (or $x325714 $x327684 $x328287 $x330454 $x340840) $x451472 (or $x327684 $x325699 $x328329 $x329039) (or $x56 $x327684 $x328232) (or $x327684 $x328675 $x330302 $x330370 $x330964) (or $x327684 $x328873 $x330909 $x342291) (or $x56 $x327684 (not (<= 0.0 (+ ?x7805 ?x7813 S_3 ?x427 ?x7803)))) (or $x327684 $x330964 $x332606 $x334115 $x338094) (or $x327684 $x330964 $x334115 $x335134 $x338094) (or $x56 $x327684 $x331146 $x335134) (or $x327684 $x327984 $x332606 $x334115 $x338094) (or $x327684 $x327984 $x328222 $x335793 $x342007) (or $x325714 $x327684 $x328222 $x335793 $x342007) (or $x3090 $x327684 $x328552 $x329734 $x334115) (or $x56 $x327684 $x335131 $x342291) (or $x56 $x327684 $x330964 $x335131) (or $x327684 $x328270 $x328329 $x329039 (not (<= (- 5.0) (+ ?x3108 ?x9354 ?x8656)))) (or $x56 $x327684 $x328270 $x340337) $x361854 (or $x327684 $x328651 $x330828 $x330931 $x333501) (or $x327684 $x328651 $x330828 $x330928 $x333501) (or $x56 $x327684 $x339834 $x342291) $x397425 (or $x56 $x318881 $x327684) (or $x3090 $x327684 $x328211 $x328222 $x328552) (or $x325714 $x327684 $x328244 $x328675 $x330370) (or $x327684 $x328222 $x332700 $x342007) (or $x327684 $x328329 $x329039 $x330272 $x342291) (or $x325714 $x327684 $x328152 $x329063 $x340792) (or $x327684 $x328552 (not (<= 0.0 (+ ?x4191 ?x7818 S_2 ?x427 ?x5548))) $x330454) (or $x327684 $x328222 $x330928 $x335793 $x342007) (or $x56 $x327684 $x332946 $x342291) (or $x327684 $x328270 $x328329 $x329039 $x330964) (or $x325714 $x327684 $x328553 $x330099) (or $x56 $x327684 $x329734) (or $x56 $x327684 $x331120) (or $x56 $x327684 $x340513 $x343594) (or $x56 $x327684 $x340513 $x340834) (or $x56 $x327684 $x332247) (or $x56 $x327566 $x327684 $x342291) (or $x327684 $x328553 $x330099 $x342291) (or $x56 $x327684 $x328270 $x331146) (or $x56 $x327684 $x330272 $x331146) (or $x327684 $x327984 $x328152 $x329063 $x340792) $x430125 (or $x325714 $x327684 $x332606 $x334115 $x338094) (or $x56 $x327684 $x333716 $x342291) (or $x327684 $x328873 $x334352 $x342291) (or $x56 $x327684 $x330964 $x335793) (or $x327684 $x331043 $x336309 $x339834 $x341825) (or (<= (+ A_4 (* (- 1.0) A_3)) 5.0) $x327684 $x328270 $x332051) (or $x327684 $x328270 $x330828 $x330928 $x332051) (or $x327684 $x328460 $x334201 $x338501 $x343455) (or $x327684 $x328460 $x333084 $x334201 $x343455) (or $x56 $x327684 $x331353 $x333084) (or $x327684 $x328152 $x329063 $x340792 $x344232) (or $x327684 $x328329 $x329532 $x330272 $x331146) (or $x327684 $x329532 $x330272 $x334679 $x341180) (or $x56 $x327684 $x330272 $x338501) (or $x56 $x327684 $x328270 $x338501) (or $x327684 $x328651 $x331353 $x340840 $x342291) (or $x325699 $x327684 $x328329 $x332051) (or $x56 $x327684 $x328247 $x330964) (or $x327684 $x328651 $x330828 $x330964 $x331353) (or $x327684 $x328651 $x330828 $x331353 $x342291) (or $x327684 $x328651 $x330828 $x333501 $x342291) (or $x327684 $x328651 $x330828 $x331353 $x333084) (or $x56 $x327684 $x330964 $x334201) (or $x56 $x327684 $x334201 $x338501) (or $x56 $x327684 $x329931) (or $x56 $x327684 $x335134 $x338501) (or $x327684 $x328222 $x330964 $x335131 $x340792) (or $x327684 $x328228 $x331451 $x332945 $x340513) (or $x327684 $x334115 $x335134 $x338094 $x338501) (or $x56 $x327684 $x328270 $x331267) (or $x327684 $x327984 $x328228 $x332946 $x338871) (or $x56 $x327684 $x331146 $x334201) (or $x327684 $x328270 $x328329 $x329039 $x330931) (or $x325714 $x327684 $x328270 $x328329 $x329039) (or $x327684 $x327808 $x330454 $x340840) (or $x327684 $x328244 $x328675 $x330964 $x340840) (or $x327684 $x328244 $x328675 $x330828 $x330928) (or $x327684 $x330928 $x332606 $x334115 $x338094) (or $x56 $x327684 $x330909 $x338501) (or $x56 $x327684 $x330909 $x342291) (or $x56 $x327684 $x327984 $x332946) (or $x56 $x327684 $x332946 $x340834) (or $x327684 $x328228 $x332946 $x338871 $x340834) (or $x56 $x327684 $x327984 $x328247) (or $x56 $x327684 $x329491 $x331146) (or $x327684 $x331146 $x332606 $x334115 $x338094) (or $x56 $x327684 $x331353 $x342291) (or $x56 $x327684 $x330964 $x335134) (or $x56 $x327684 $x330964 $x332606) (or $x56 $x327684 $x333501 $x338501) (or $x56 $x327684 $x327808) (or $x327684 $x328228 $x338871 $x340513 $x340834) (or $x56 $x327684 $x330909 $x331146) (or $x56 $x327684 $x330909 $x330964) (or $x327684 $x328270 $x332051 $x340840 $x342291) (or $x56 $x327684 $x332671) (or $x327684 $x328460 $x330964 $x334201 $x343455) (or $x327684 $x325699 $x331116) (or $x56 $x327684 $x330964 $x333501) (or $x327684 $x331146 $x334115 $x335134 $x338094) (or $x327684 $x328329 $x330272 $x332051 $x340337) (or $x327684 $x328329 $x330272 $x332051 $x338501) (or $x327684 $x328329 $x329532 $x330272 $x333084) (or $x56 $x327684 $x328270 $x333084) $x517545 (or $x325699 $x327684 $x328329 $x329532) (or $x56 $x327684 $x328311) (or $x3090 $x327684 $x328311 $x328552 $x328651) (or $x327684 $x328873 $x330964 $x334352) (or $x327684 $x328873 $x334352 $x344232) (or $x327684 $x328553 $x330099 $x336309) (or $x327684 $x328270 $x328329 $x329155 $x329540 (not (<= (- 5.0) (+ ?x3108 ?x9354 ?x8656)))) (or $x327684 $x328270 $x330964 $x332051 $x338094) (or $x327684 $x328329 $x330272 $x330964 $x332051) (or $x327684 $x328270 $x328329 $x330964 $x332051) (or $x327684 $x328270 $x328329 $x332051 $x342291) (or $x327684 $x328651 $x334498 $x343594) (or $x327684 $x328270 $x328329 $x329155 $x329540 $x340337) (or $x327684 $x328460 $x331146 $x334201 $x343455) (or $x56 $x327684 $x333510) (or $x327684 $x328270 $x328329 $x329039 $x330928) (or $x327684 $x328873 $x330909 $x333084) (or $x327684 $x328651 $x334498 $x340840) (or $x56 $x327684 $x328247 (not $x343112)) (or $x327684 $x330454 $x333716 $x340840 $x342291) (or $x327684 $x328287 $x330454 $x340840 $x342291) (or $x327684 $x328460 $x329491 $x330964 $x343455) (or $x325714 $x327684 $x328716 $x330969) (or $x327684 $x328716 $x330969 $x344232) (or $x327684 $x328270 $x328329 $x329039 $x342291) $x437614 (or $x63833 $x327684 $x330362 $x338984) (or $x327684 $x328270 $x331116 $x331267) (or $x56 $x327684 $x331353 $x338501) (or $x56 $x327684 $x333501 $x342291) (or $x327684 $x330931 $x332606 $x334115 $x341825) (or $x327684 $x328244 $x328675 $x343594) (or $x56 $x327684 $x328247 $x338501) (or $x327684 $x328651 $x330828 $x333501 $x344671) (or $x327684 $x328651 $x330828 $x333501 $x344232) (or $x56 $x327684 $x334352 $x342291) (or $x56 $x327684 $x333084 $x334352) (or $x327684 $x328270 $x328329 $x332051 $x340337) (or $x327684 $x328651 $x330828 $x334498) (or $x327684 $x328329 $x329039 $x330272 $x330964) (or $x327684 $x328244 $x328675 $x330370 $x330964) (or $x327684 $x332606 $x334115 $x338501 $x343455) (or $x327684 $x328270 $x328329 $x331146 $x332051) (or $x56 $x327684 $x328287 $x342291) (or $x327684 $x328460 $x331282 $x343455) (or $x327684 $x330931 $x332606 $x334115 $x338094) (or $x327684 $x328651 $x330828 $x330964 $x333501) (or $x327684 $x332606 $x334115 $x336309 $x338094) (or $x325714 $x327684 $x328651 $x330828 $x333501) (or $x325714 $x327684 $x328873 $x334352) (or $x327684 $x328873 $x330928 $x334352) (or $x327684 $x328270 $x328329 $x329532 $x331267) (or $x327684 $x328651 $x330828 $x331353 $x338501) (or $x56 $x327684 $x328247 $x331146) (or $x327684 $x328222 $x330964 $x335793 $x342007) (or $x56 $x327684 $x331146 $x332606) (or $x327684 $x330272 $x330980 $x331116) (or $x327684 $x330272 $x331116 $x333084) (or $x56 $x327684 $x329582) (or $x327684 $x328873 $x330931 $x334352) (or $x327684 $x328873 $x331146 $x334352) (or $x327684 $x327984 $x328873 $x334352) (or $x325157 $x327684 $x333510 $x334115) (or $x327684 $x328270 $x329540 $x330964 $x331384 $x338094) (or (not (<= ?x1322 (- 5.0))) $x327684 $x328270 $x328329 $x329540 $x331267) (or $x325714 $x327684 $x330362 $x336173 $x338984) (or $x327684 $x328270 $x328329 $x329532 $x333084) (or $x327684 $x333510 $x334115 $x336173) (or $x56 $x327684 $x329491 $x338501) (or $x327684 $x328651 $x330828 $x333501 $x355523) (or $x327684 $x328270 $x330964 $x331116) (or $x327684 $x328270 $x331116 $x338501) (or $x327684 $x329582 $x330099) (or $x327684 $x332606 $x334115 $x338094 $x338501) (or $x319796 $x327684 $x330099) (or $x326371 $x327684 $x327909 $x337658) (or $x56 $x327684 $x328247 $x333084) (or $x56 $x327684 $x331282) (or $x327684 $x328270 $x328329 $x329039 $x338501) (or $x327684 $x332606 $x334115 $x338094 $x342291) (or $x327684 $x334115 $x335134 $x338094 $x342291) (or $x327684 $x328270 $x328329 $x329532 $x340337) (or $x327684 $x328270 $x328329 $x329039 $x339275) (or $x9316 $x327684 $x328270 $x328329 $x329540 $x330980) (or $x327684 $x328270 $x330928 $x331116) (or $x325714 $x327566 $x327684 $x331043 $x341825) (or $x327566 $x327684 $x327984 $x331043 $x341825) (or $x327684 $x328270 $x331116 $x333084) (or $x56 $x327684 $x328270 $x330964) (or $x327684 $x328270 $x331116 $x339275) (or $x327684 $x327984 $x328270 $x331116) (or $x56 $x327684 $x332193) (or $x327684 $x328287 $x330454 $x336309 $x340840) (or $x327684 $x328651 $x330828 $x333501 $x336309) (or $x327684 $x328727 $x333087) (or $x327684 $x327984 $x328270 $x328329 $x329532) (or $x327684 $x328270 $x331116 $x355523) $x382634 (or $x327684 $x328270 $x328329 $x329532 $x344671) (or $x327684 $x328270 $x328329 $x329532 $x339275) (or $x56 $x327684 $x332606 $x342291) (or $x56 $x327684 $x331146 $x334352) (or $x56 $x327684 $x330964 $x334352) (or $x327684 $x327984 $x328270 $x328329 $x329155 $x329540) (or $x327684 $x327984 $x328270 $x328329 $x332051) (or $x327684 $x328460 $x329491 $x330931 $x343455) (or $x327684 $x330272 $x331116 $x342291) $x906826 (or $x325714 $x327684 $x328270 $x328329 $x332051) (or $x327684 $x328460 $x329491 $x338501 $x343455) (or $x327684 $x333510 $x334115 $x338094) (or $x327684 $x328270 $x328329 $x332051 $x338076) (or $x327684 $x330362 (not $x329411) $x336173) (or $x327684 $x328873 $x330909 $x331146) (or $x327684 $x330272 $x331116 $x331267) (or $x327684 $x330272 $x331116 $x338501) (or $x56 $x327684 $x329491 $x330964) (or $x327684 $x328270 $x328329 $x329039 $x330980) (or $x327684 $x328270 $x329155 $x329540 $x336309 $x341825) (or $x327684 $x328270 $x328329 $x329532 $x338076) (or $x327684 $x328329 $x329039 $x330272 $x330980) (or $x327684 $x328873 $x334352 $x336309) (or $x327684 $x328873 $x334352 $x344671) (or $x327684 $x331043 $x339834 $x341825 $x342291) (or $x327566 $x327684 $x331043 $x341825 $x342291) (or $x327684 $x331043 $x332193 $x341825) (or $x327684 $x328270 $x328329 $x329039 $x336309) (or $x327684 $x328873 $x334352 $x338501) (or $x325699 $x327684 $x328329 $x329155 $x329540) (or $x56 $x327684 $x332606 $x338501) (or $x327684 $x328270 $x328329 $x329155 $x329540 $x339275) (or $x327684 $x328270 $x328329 $x329155 $x329540 $x355523) (or $x327566 $x327684 $x331043 $x336309 $x341825) (or $x327684 $x328270 $x328329 $x332051 $x336309) (or $x327684 $x328873 $x333084 $x334352) (or $x327684 $x328270 $x328329 $x330928 $x332051) (or $x327684 $x328270 $x328329 $x332051 $x338501) (or $x327684 $x328287 $x330454 $x340840 $x355523) (or $x327684 $x328152 $x330964 $x331937 $x340792) (or $x327684 $x328651 $x330828 $x333084 $x333501) (or $x327684 $x327984 $x328716 $x330969) (or $x327684 $x328270 $x328329 $x329540 $x330964 $x331384) (or $x9316 $x327684 $x328270 $x328329 $x329540 $x344232) (or $x327684 $x328460 $x329491 $x343455 $x344671) (or $x325714 $x327684 $x328460 $x329491 $x343455) (or $x327684 $x328222 $x330964 $x335131 $x342007) (or $x325714 $x327684 $x328270 $x328329 $x329532) (or $x327684 $x328244 $x328675 $x330370 $x330928) (or $x327684 $x328270 $x328329 $x329532 $x338501) (or $x327684 $x328329 $x329532 $x330272 $x330964) (or $x327684 $x328727 $x333816) (or $x327684 $x328460 $x329491 $x343455 $x344232) (or $x327684 $x328270 $x330931 $x331116) (or $x325714 $x327684 $x328270 $x331116) (or $x327684 $x328553 $x330099 $x355523) (or $x327684 $x328244 $x328675 $x330370 $x344232) (or $x327684 $x328270 $x328329 $x329532 $x344232) (or $x325714 $x327684 $x328270 $x328329 $x329155 $x329540) (or $x327684 $x328873 $x332247) (or $x327684 $x328329 $x330272 $x332051 $x342291) (or $x327684 $x328873 $x330909 $x338501) (or $x327684 $x328329 $x330272 $x331267 $x332051) (or $x327684 $x328651 $x330828 $x333501 $x338501) (or $x327684 $x328873 $x334352 $x355523) (or $x327684 $x328270 $x328329 $x329532 $x330964) (or $x327684 $x327984 $x328460 $x329491 $x343455) (or $x327684 $x328460 $x329491 $x331146 $x343455) (or $x327684 $x328460 $x329491 $x333084 $x343455) (or $x327684 $x328329 $x329540 $x330272 $x330964 $x341180) (or $x318881 $x327684 $x328716) (or $x327684 $x328329 $x329540 $x330272 $x340337 $x341180) (or $x327684 $x328329 $x329532 $x330272 $x340337) (or $x327684 $x328460 $x329491 $x330928 $x343455) (or $x327684 $x328270 $x328329 $x329155 $x329540 $x336309) (or $x327684 $x328270 $x329155 $x329540 $x330928 $x342007) (or $x327684 $x328270 $x328329 $x329155 $x329540 $x330928) (or $x327684 $x328329 $x329039 $x330272 $x333084) (or $x327684 $x328329 $x329039 $x330272 $x340337) (or $x327684 $x328329 $x329532 $x330272 $x338501) (or $x327684 $x328329 $x329540 $x330272 $x341180 $x342291) (or $x327684 $x328329 $x330272 $x331146 $x332051) (or $x327684 $x327984 $x328553 $x330099) (or $x327684 $x328329 $x329532 $x330272 $x330980) (or $x327684 $x328329 $x329532 $x330272 $x331267) (or $x327684 $x328270 $x328329 $x329039 $x340337) (or $x327684 $x328329 $x329540 $x330272 $x330980 $x341180) (or $x327684 $x328329 $x329540 $x330272 $x331267 $x341180) (or $x327684 $x328270 $x331116 $x344671) (or $x327684 $x328270 $x331116 $x344232) (or $x327684 $x328270 $x328329 $x329039 $x355523) (or $x327684 $x328270 $x331116 $x336309) (or $x327684 $x328270 $x328329 $x329039 $x333084) (or $x327684 $x328270 $x328329 $x329039 $x344671) (or $x327684 $x328270 $x331116 $x342291) (or $x327684 $x328270 $x331116 $x331146) (or $x327684 $x328270 $x328329 $x331267 $x332051) (or $x327684 $x328270 $x328329 $x330931 $x332051) (or $x327684 $x328270 $x328329 $x329532 $x330931) (or $x327684 $x328270 $x328329 $x329532 $x330980) (or $x327684 $x328270 $x328329 $x329532 $x330928) (or $x327684 $x328270 $x328329 $x329039 $x344232) $x39 (<= (+ ?x1347 S_0 L_0) 0.0) (not (>= (+ L_1 S_4 (* (- 1.0) A_2)) 0.0)) (<= (+ (* (- 1.0) S_4) S_2) (- 5.0)) (<= (+ ?x440 S_1) (- 5.0)) (<= (+ S_4 (* (- 3.0) S_3) ?x2698) 0.0) (<= (+ L_1 ?x460 S_1) 0.0) $x8606 (<= (+ ?x440 (* (/ 3.0 2.0) S_1) (* (- (/ 1.0 2.0)) S_0)) 0.0) $x1777 (<= (+ (* (- (/ 1.0 2.0)) S_4) (* (/ 1.0 2.0) S_1)) (- 5.0)) (<= (+ (* (- 1.0) S_4) ?x2698 ?x1426) 0.0) $x2766 (<= (+ (* (- 3.0) S_4) (* 4.0 S_2) ?x1426) 0.0) (<= (+ (* (- 2.0) S_4) ?x1609 ?x427) 0.0))))))))))))))))))))))))))))))))))))))))))))))))))))))))))))))))))))))))))))))))))))))))))))))))))))))))))))))))))))))))))))))))))))))))))))))))))))))))))))))))))))))))))))))))))))))))))))))))))))))))))))))))))))))))))))))))))))))))))))))))))))))))
(check-sat)
